100
32
20
2
25
23
3
15
19
28
26
15
5
5
6
5
24
1
9
10
3
4
1
2
2
1
1
25
1
1
2
1
1
2
1
1
3
1
1
1
2
17
1
4
1
18
2
16
2
1
1
19
4
1
2
1
5
2
3
20
6
3
2
1
2
1
1
1
3
18
1
1
1
2
1
1
3
2
10
1
4
4
2
19
1
1
2
18
1
1
17
5
2
2
2
1
3
2
2
3
2
2